NAME          
ROWS
 N  OBJ
 L  c1
 L  c2
 L  c3
COLUMNS
    MARKER    'MARKER'                 'INTORG'
    x[1]      c1        840
    x[1]      c2        870
    x[1]      c3        877
    x[1]      OBJ       -60
    x[2]      c1        655
    x[2]      c2        561
    x[2]      c3        478
    x[2]      OBJ       -995
    x[3]      c1        584
    x[3]      c2        451
    x[3]      c3        720
    x[3]      OBJ       -972
    x[4]      c1        586
    x[4]      c2        582
    x[4]      c3        434
    x[4]      OBJ       -651
    x[5]      c1        716
    x[5]      c2        757
    x[5]      c3        253
    x[5]      OBJ       -56
    x[6]      c1        174
    x[6]      c2        812
    x[6]      c3        406
    x[6]      OBJ       -222
    x[7]      c1        953
    x[7]      c2        646
    x[7]      c3        944
    x[7]      OBJ       -814
    x[8]      c1        782
    x[8]      c2        152
    x[8]      c3        535
    x[8]      OBJ       -389
    x[9]      c1        843
    x[9]      c2        734
    x[9]      c3        948
    x[9]      OBJ       -269
    x[10]     c1        176
    x[10]     c2        384
    x[10]     c3        228
    x[10]     OBJ       -315
    x[11]     c1        696
    x[11]     c2        9
    x[11]     c3        475
    x[11]     OBJ       -591
    x[12]     c1        654
    x[12]     c2        98
    x[12]     c3        788
    x[12]     OBJ       -534
    x[13]     c1        506
    x[13]     c2        540
    x[13]     c3        652
    x[13]     OBJ       -887
    x[14]     c1        48
    x[14]     c2        223
    x[14]     c3        149
    x[14]     OBJ       -139
    x[15]     c1        133
    x[15]     c2        115
    x[15]     c3        880
    x[15]     OBJ       -36
RHS
    rhs       c1        4173
    rhs       c2        3467
    rhs       c3        4384
RANGES
BOUNDS
 LO bounds    x[1]      0
 PL bounds    x[1]
 LO bounds    x[2]      0
 PL bounds    x[2]
 LO bounds    x[3]      0
 PL bounds    x[3]
 LO bounds    x[4]      0
 PL bounds    x[4]
 LO bounds    x[5]      0
 PL bounds    x[5]
 LO bounds    x[6]      0
 PL bounds    x[6]
 LO bounds    x[7]      0
 PL bounds    x[7]
 LO bounds    x[8]      0
 PL bounds    x[8]
 LO bounds    x[9]      0
 PL bounds    x[9]
 LO bounds    x[10]     0
 PL bounds    x[10]
 LO bounds    x[11]     0
 PL bounds    x[11]
 LO bounds    x[12]     0
 PL bounds    x[12]
 LO bounds    x[13]     0
 PL bounds    x[13]
 LO bounds    x[14]     0
 PL bounds    x[14]
 LO bounds    x[15]     0
 PL bounds    x[15]
ENDATA
